p tw 41 312
0 1
0 2
0 3
0 6
0 9
0 27
0 5
0 13
0 18
0 22
0 31
1 2
1 3
1 15
1 16
1 22
1 27
1 25
1 35
1 36
1 4
1 5
1 18
1 26
1 9
1 28
1 19
1 32
2 3
2 19
2 20
2 29
2 32
2 21
3 10
3 16
3 22
3 26
3 7
3 8
3 12
4 5
4 6
4 7
4 8
4 9
4 10
4 11
4 15
4 20
4 28
4 22
4 23
4 35
4 14
4 30
4 37
4 18
4 26
4 33
4 34
5 6
5 7
5 8
5 24
5 25
5 26
5 15
5 33
5 34
5 37
5 38
5 13
5 18
5 35
5 28
6 7
6 8
6 9
6 27
6 15
6 33
6 37
6 39
6 31
6 11
6 17
6 30
7 8
7 9
7 10
7 11
7 23
7 26
7 28
7 29
7 12
7 22
7 16
7 21
7 18
7 20
7 35
7 13
7 34
7 15
7 17
7 39
8 12
8 22
8 16
8 25
8 40
8 11
8 23
8 27
8 33
9 10
9 11
9 27
9 16
9 19
9 20
9 24
9 22
9 23
9 35
9 15
9 28
9 36
9 17
9 30
10 11
10 16
10 22
10 26
10 21
10 28
10 13
10 24
11 33
11 34
11 17
11 30
11 23
11 27
12 13
12 14
12 15
12 16
12 17
12 18
12 19
12 20
12 21
12 22
12 23
12 31
13 14
13 15
13 16
13 21
13 22
13 23
13 18
13 34
13 35
13 24
13 28
14 15
14 16
14 23
14 30
14 37
14 31
15 16
15 22
15 27
15 20
15 28
15 26
15 33
15 34
15 37
15 39
15 36
15 17
15 23
16 22
16 27
16 26
16 23
16 30
16 19
16 20
16 24
16 21
16 28
16 25
16 40
16 32
16 35
16 37
16 31
17 18
17 19
17 20
17 27
17 30
17 36
17 40
17 23
17 39
18 19
18 20
18 27
18 29
18 31
18 32
18 34
18 35
18 26
18 22
19 20
19 29
19 32
19 24
19 21
19 22
20 28
20 29
20 32
20 24
20 26
20 35
21 22
21 23
21 28
21 24
21 32
22 23
22 27
22 26
22 25
22 40
22 35
22 24
22 31
22 32
23 26
23 28
23 29
23 30
23 35
23 37
23 39
23 27
23 33
24 25
24 26
24 34
24 40
25 26
25 27
25 35
25 36
25 34
25 40
26 28
26 29
26 33
26 34
26 37
26 38
26 35
26 27
26 39
26 40
27 29
27 31
27 32
27 35
27 36
27 30
27 40
27 39
27 33
28 29
28 34
28 36
29 31
29 32
30 37
30 36
30 40
31 32
31 39
33 34
33 37
33 39
34 37
34 38
34 40
34 35
35 36
35 37
35 39
35 40
36 40
37 38
37 39
39 40
